NAME          BLANK   
ROWS
 N  OBJROW
 L  R0000000
COLUMNS
    C0000000  OBJROW     -801.         R0000000  247.        
    C0000001  OBJROW     -400.         R0000000  634.        
    C0000002  OBJROW     -586.         R0000000  217.        
    C0000003  OBJROW     -425.         R0000000  653.        
    C0000004  OBJROW     -60.          R0000000  336.        
    C0000005  OBJROW     -24.          R0000000  449.        
    C0000006  OBJROW     -33.          R0000000  833.        
    C0000007  OBJROW     -346.         R0000000  202.        
    C0000008  OBJROW     -345.         R0000000  153.        
    C0000009  OBJROW     -160.         R0000000  408.        
    C0000010  OBJROW     -928.         R0000000  963.        
    C0000011  OBJROW     -826.         R0000000  974.        
RHS
    RHS       R0000000  15344.      
BOUNDS
 BV BOUND     C0000000  1.          
 BV BOUND     C0000001  1.          
 BV BOUND     C0000002  1.          
 BV BOUND     C0000003  1.          
 BV BOUND     C0000004  1.          
 BV BOUND     C0000005  1.          
 BV BOUND     C0000006  1.          
 BV BOUND     C0000007  1.          
 BV BOUND     C0000008  1.          
 BV BOUND     C0000009  1.          
 BV BOUND     C0000010  1.          
 BV BOUND     C0000011  1.          
ENDATA
